NAME : XML100_3222_22
DIMENSION : 101
NB_CLUSTERS : 5
CLUSTERING_ALG : KMedoids
CLUSTERING_PARAMS : k(4)
CLUSTERS
1 0
2 3 8 9 12 13 15 18 23 24 28 34 36 42 43 47 53 59 63 64 65 73 77 78 80 83 85 86 89 97 98 99
3 2 4 10 19 21 22 25 26 29 30 37 44 54 55 56 57 60 61 67 70 71 81 92 93 94
4 5 7 32 38 39 41 66 74 75 84 88 90 100
5 1 6 11 14 16 17 20 27 31 33 35 40 45 46 48 49 50 51 52 58 62 68 69 72 76 79 82 87 91 95 96
EOF